language ESSENCE' 1.0
$ Minion SolverNodes: 189324
$ Minion SolverTotalTime: 207.262
$ Minion SolverTimeOut: 0
$ Savile Row TotalTime: 79.652
letting numberOfTurningPoints be 19
letting states be [[[0, 0, 0, 0, 0, 1, 0, 0], 
[0, 0, 0, 1, 0, 0, 0, 0], 
[0, 0, 0, 0, 0, 0, 0, 0], 
[0, 0, 0, 0, 0, 0, 0, 0], 
[0, 1, 0, 0, 1, 0, 0, 0], 
[0, 0, 0, 0, 0, 0, 0, 0], 
[0, 0, 0, 0, 0, 0, 0, 0], 
[0, 0, 0, 0, 0, 0, 0, 0]], 
[[0, 1, 0, 0, 0, 1, 0, 0], 
[0, 1, 0, 1, 0, 0, 0, 0], 
[0, 1, 0, 0, 0, 0, 0, 0], 
[0, 1, 0, 0, 0, 0, 0, 0], 
[0, 1, 0, 0, 1, 0, 0, 0], 
[0, 0, 0, 0, 0, 0, 0, 0], 
[0, 0, 0, 0, 0, 0, 0, 0], 
[0, 0, 0, 0, 0, 0, 0, 0]], 
[[1, 1, 0, 0, 0, 1, 0, 0], 
[0, 1, 0, 1, 0, 0, 0, 0], 
[0, 1, 0, 0, 0, 0, 0, 0], 
[0, 1, 0, 0, 0, 0, 0, 0], 
[0, 1, 0, 0, 1, 0, 0, 0], 
[0, 0, 0, 0, 0, 0, 0, 0], 
[0, 0, 0, 0, 0, 0, 0, 0], 
[0, 0, 0, 0, 0, 0, 0, 0]], 
[[1, 1, 0, 0, 0, 1, 0, 0], 
[1, 1, 0, 1, 0, 0, 0, 0], 
[1, 1, 0, 0, 0, 0, 0, 0], 
[1, 1, 0, 0, 0, 0, 0, 0], 
[1, 1, 0, 0, 1, 0, 0, 0], 
[1, 0, 0, 0, 0, 0, 0, 0], 
[1, 0, 0, 0, 0, 0, 0, 0], 
[1, 0, 0, 0, 0, 0, 0, 0]], 
[[1, 1, 0, 0, 0, 1, 0, 0], 
[1, 1, 0, 1, 0, 0, 0, 0], 
[1, 1, 0, 0, 0, 0, 0, 0], 
[1, 1, 0, 0, 0, 0, 0, 0], 
[1, 1, 0, 0, 1, 0, 0, 0], 
[1, 0, 0, 0, 0, 0, 0, 0], 
[1, 0, 0, 0, 0, 0, 0, 0], 
[1, 1, 1, 1, 1, 1, 1, 1]], 
[[1, 1, 0, 0, 0, 1, 0, 1], 
[1, 1, 0, 1, 0, 0, 0, 1], 
[1, 1, 0, 0, 0, 0, 0, 1], 
[1, 1, 0, 0, 0, 0, 0, 1], 
[1, 1, 0, 0, 1, 0, 0, 1], 
[1, 0, 0, 0, 0, 0, 0, 1], 
[1, 0, 0, 0, 0, 0, 0, 1], 
[1, 1, 1, 1, 1, 1, 1, 1]], 
[[1, 1, 0, 0, 0, 1, 1, 1], 
[1, 1, 0, 1, 0, 0, 0, 1], 
[1, 1, 0, 0, 0, 0, 0, 1], 
[1, 1, 0, 0, 0, 0, 0, 1], 
[1, 1, 0, 0, 1, 0, 0, 1], 
[1, 0, 0, 0, 0, 0, 0, 1], 
[1, 0, 0, 0, 0, 0, 0, 1], 
[1, 1, 1, 1, 1, 1, 1, 1]], 
[[1, 1, 0, 0, 0, 1, 1, 1], 
[1, 1, 0, 1, 0, 0, 1, 1], 
[1, 1, 0, 0, 0, 0, 1, 1], 
[1, 1, 0, 0, 0, 0, 1, 1], 
[1, 1, 0, 0, 1, 0, 1, 1], 
[1, 0, 0, 0, 0, 0, 1, 1], 
[1, 0, 0, 0, 0, 0, 1, 1], 
[1, 1, 1, 1, 1, 1, 1, 1]], 
[[1, 1, 0, 0, 0, 1, 1, 1], 
[1, 1, 0, 1, 0, 0, 1, 1], 
[1, 1, 0, 0, 0, 0, 1, 1], 
[1, 1, 0, 0, 0, 0, 1, 1], 
[1, 1, 0, 0, 1, 0, 1, 1], 
[1, 0, 0, 0, 0, 0, 1, 1], 
[1, 1, 1, 1, 1, 1, 1, 1], 
[1, 1, 1, 1, 1, 1, 1, 1]], 
[[1, 1, 0, 0, 0, 1, 1, 1], 
[1, 1, 0, 1, 0, 0, 1, 1], 
[1, 1, 0, 0, 0, 0, 1, 1], 
[1, 1, 0, 0, 0, 0, 1, 1], 
[1, 1, 0, 0, 1, 0, 1, 1], 
[1, 1, 0, 0, 0, 0, 1, 1], 
[1, 1, 1, 1, 1, 1, 1, 1], 
[1, 1, 1, 1, 1, 1, 1, 1]], 
[[1, 1, 0, 0, 0, 1, 1, 1], 
[1, 1, 0, 1, 0, 0, 1, 1], 
[1, 1, 0, 0, 0, 0, 1, 1], 
[1, 1, 0, 0, 0, 0, 1, 1], 
[1, 1, 0, 0, 1, 0, 1, 1], 
[1, 1, 1, 1, 1, 1, 1, 1], 
[1, 1, 1, 1, 1, 1, 1, 1], 
[1, 1, 1, 1, 1, 1, 1, 1]], 
[[1, 1, 0, 0, 0, 1, 1, 1], 
[1, 1, 0, 1, 0, 1, 1, 1], 
[1, 1, 0, 0, 0, 1, 1, 1], 
[1, 1, 0, 0, 0, 1, 1, 1], 
[1, 1, 0, 0, 1, 1, 1, 1], 
[1, 1, 1, 1, 1, 1, 1, 1], 
[1, 1, 1, 1, 1, 1, 1, 1], 
[1, 1, 1, 1, 1, 1, 1, 1]], 
[[1, 1, 0, 0, 0, 1, 1, 1], 
[1, 1, 0, 1, 1, 1, 1, 1], 
[1, 1, 0, 0, 0, 1, 1, 1], 
[1, 1, 0, 0, 0, 1, 1, 1], 
[1, 1, 0, 0, 1, 1, 1, 1], 
[1, 1, 1, 1, 1, 1, 1, 1], 
[1, 1, 1, 1, 1, 1, 1, 1], 
[1, 1, 1, 1, 1, 1, 1, 1]], 
[[1, 1, 0, 0, 1, 1, 1, 1], 
[1, 1, 0, 1, 1, 1, 1, 1], 
[1, 1, 0, 0, 0, 1, 1, 1], 
[1, 1, 0, 0, 0, 1, 1, 1], 
[1, 1, 0, 0, 1, 1, 1, 1], 
[1, 1, 1, 1, 1, 1, 1, 1], 
[1, 1, 1, 1, 1, 1, 1, 1], 
[1, 1, 1, 1, 1, 1, 1, 1]], 
[[1, 1, 1, 1, 1, 1, 1, 1], 
[1, 1, 0, 1, 1, 1, 1, 1], 
[1, 1, 0, 0, 0, 1, 1, 1], 
[1, 1, 0, 0, 0, 1, 1, 1], 
[1, 1, 0, 0, 1, 1, 1, 1], 
[1, 1, 1, 1, 1, 1, 1, 1], 
[1, 1, 1, 1, 1, 1, 1, 1], 
[1, 1, 1, 1, 1, 1, 1, 1]], 
[[1, 1, 1, 1, 1, 1, 1, 1], 
[1, 1, 1, 1, 1, 1, 1, 1], 
[1, 1, 1, 0, 0, 1, 1, 1], 
[1, 1, 1, 0, 0, 1, 1, 1], 
[1, 1, 1, 0, 1, 1, 1, 1], 
[1, 1, 1, 1, 1, 1, 1, 1], 
[1, 1, 1, 1, 1, 1, 1, 1], 
[1, 1, 1, 1, 1, 1, 1, 1]], 
[[1, 1, 1, 1, 1, 1, 1, 1], 
[1, 1, 1, 1, 1, 1, 1, 1], 
[1, 1, 1, 0, 0, 1, 1, 1], 
[1, 1, 1, 0, 0, 1, 1, 1], 
[1, 1, 1, 1, 1, 1, 1, 1], 
[1, 1, 1, 1, 1, 1, 1, 1], 
[1, 1, 1, 1, 1, 1, 1, 1], 
[1, 1, 1, 1, 1, 1, 1, 1]], 
[[1, 1, 1, 1, 1, 1, 1, 1], 
[1, 1, 1, 1, 1, 1, 1, 1], 
[1, 1, 1, 1, 0, 1, 1, 1], 
[1, 1, 1, 1, 0, 1, 1, 1], 
[1, 1, 1, 1, 1, 1, 1, 1], 
[1, 1, 1, 1, 1, 1, 1, 1], 
[1, 1, 1, 1, 1, 1, 1, 1], 
[1, 1, 1, 1, 1, 1, 1, 1]], 
[[1, 1, 1, 1, 1, 1, 1, 1], 
[1, 1, 1, 1, 1, 1, 1, 1], 
[1, 1, 1, 1, 1, 1, 1, 1], 
[1, 1, 1, 1, 0, 1, 1, 1], 
[1, 1, 1, 1, 1, 1, 1, 1], 
[1, 1, 1, 1, 1, 1, 1, 1], 
[1, 1, 1, 1, 1, 1, 1, 1], 
[1, 1, 1, 1, 1, 1, 1, 1]], 
[[1, 1, 1, 1, 1, 1, 1, 1], 
[1, 1, 1, 1, 1, 1, 1, 1], 
[1, 1, 1, 1, 1, 1, 1, 1], 
[1, 1, 1, 1, 1, 1, 1, 1], 
[1, 1, 1, 1, 1, 1, 1, 1], 
[1, 1, 1, 1, 1, 1, 1, 1], 
[1, 1, 1, 1, 1, 1, 1, 1], 
[1, 1, 1, 1, 1, 1, 1, 1]], 
[[1, 1, 1, 1, 1, 1, 1, 1], 
[1, 1, 1, 1, 1, 1, 1, 1], 
[1, 1, 1, 1, 1, 1, 1, 1], 
[1, 1, 1, 1, 1, 1, 1, 1], 
[1, 1, 1, 1, 1, 1, 1, 1], 
[1, 1, 1, 1, 1, 1, 1, 1], 
[1, 1, 1, 1, 1, 1, 1, 1], 
[1, 1, 1, 1, 1, 1, 1, 1]], 
[[1, 1, 1, 1, 1, 1, 1, 1], 
[1, 1, 1, 1, 1, 1, 1, 1], 
[1, 1, 1, 1, 1, 1, 1, 1], 
[1, 1, 1, 1, 1, 1, 1, 1], 
[1, 1, 1, 1, 1, 1, 1, 1], 
[1, 1, 1, 1, 1, 1, 1, 1], 
[1, 1, 1, 1, 1, 1, 1, 1], 
[1, 1, 1, 1, 1, 1, 1, 1]], 
[[1, 1, 1, 1, 1, 1, 1, 1], 
[1, 1, 1, 1, 1, 1, 1, 1], 
[1, 1, 1, 1, 1, 1, 1, 1], 
[1, 1, 1, 1, 1, 1, 1, 1], 
[1, 1, 1, 1, 1, 1, 1, 1], 
[1, 1, 1, 1, 1, 1, 1, 1], 
[1, 1, 1, 1, 1, 1, 1, 1], 
[1, 1, 1, 1, 1, 1, 1, 1]], 
[[1, 1, 1, 1, 1, 1, 1, 1], 
[1, 1, 1, 1, 1, 1, 1, 1], 
[1, 1, 1, 1, 1, 1, 1, 1], 
[1, 1, 1, 1, 1, 1, 1, 1], 
[1, 1, 1, 1, 1, 1, 1, 1], 
[1, 1, 1, 1, 1, 1, 1, 1], 
[1, 1, 1, 1, 1, 1, 1, 1], 
[1, 1, 1, 1, 1, 1, 1, 1]], 
[[1, 1, 1, 1, 1, 1, 1, 1], 
[1, 1, 1, 1, 1, 1, 1, 1], 
[1, 1, 1, 1, 1, 1, 1, 1], 
[1, 1, 1, 1, 1, 1, 1, 1], 
[1, 1, 1, 1, 1, 1, 1, 1], 
[1, 1, 1, 1, 1, 1, 1, 1], 
[1, 1, 1, 1, 1, 1, 1, 1], 
[1, 1, 1, 1, 1, 1, 1, 1]], 
[[1, 1, 1, 1, 1, 1, 1, 1], 
[1, 1, 1, 1, 1, 1, 1, 1], 
[1, 1, 1, 1, 1, 1, 1, 1], 
[1, 1, 1, 1, 1, 1, 1, 1], 
[1, 1, 1, 1, 1, 1, 1, 1], 
[1, 1, 1, 1, 1, 1, 1, 1], 
[1, 1, 1, 1, 1, 1, 1, 1], 
[1, 1, 1, 1, 1, 1, 1, 1]], 
[[1, 1, 1, 1, 1, 1, 1, 1], 
[1, 1, 1, 1, 1, 1, 1, 1], 
[1, 1, 1, 1, 1, 1, 1, 1], 
[1, 1, 1, 1, 1, 1, 1, 1], 
[1, 1, 1, 1, 1, 1, 1, 1], 
[1, 1, 1, 1, 1, 1, 1, 1], 
[1, 1, 1, 1, 1, 1, 1, 1], 
[1, 1, 1, 1, 1, 1, 1, 1]], 
[[1, 1, 1, 1, 1, 1, 1, 1], 
[1, 1, 1, 1, 1, 1, 1, 1], 
[1, 1, 1, 1, 1, 1, 1, 1], 
[1, 1, 1, 1, 1, 1, 1, 1], 
[1, 1, 1, 1, 1, 1, 1, 1], 
[1, 1, 1, 1, 1, 1, 1, 1], 
[1, 1, 1, 1, 1, 1, 1, 1], 
[1, 1, 1, 1, 1, 1, 1, 1]], 
[[1, 1, 1, 1, 1, 1, 1, 1], 
[1, 1, 1, 1, 1, 1, 1, 1], 
[1, 1, 1, 1, 1, 1, 1, 1], 
[1, 1, 1, 1, 1, 1, 1, 1], 
[1, 1, 1, 1, 1, 1, 1, 1], 
[1, 1, 1, 1, 1, 1, 1, 1], 
[1, 1, 1, 1, 1, 1, 1, 1], 
[1, 1, 1, 1, 1, 1, 1, 1]], 
[[1, 1, 1, 1, 1, 1, 1, 1], 
[1, 1, 1, 1, 1, 1, 1, 1], 
[1, 1, 1, 1, 1, 1, 1, 1], 
[1, 1, 1, 1, 1, 1, 1, 1], 
[1, 1, 1, 1, 1, 1, 1, 1], 
[1, 1, 1, 1, 1, 1, 1, 1], 
[1, 1, 1, 1, 1, 1, 1, 1], 
[1, 1, 1, 1, 1, 1, 1, 1]], 
[[1, 1, 1, 1, 1, 1, 1, 1], 
[1, 1, 1, 1, 1, 1, 1, 1], 
[1, 1, 1, 1, 1, 1, 1, 1], 
[1, 1, 1, 1, 1, 1, 1, 1], 
[1, 1, 1, 1, 1, 1, 1, 1], 
[1, 1, 1, 1, 1, 1, 1, 1], 
[1, 1, 1, 1, 1, 1, 1, 1], 
[1, 1, 1, 1, 1, 1, 1, 1]], 
[[1, 1, 1, 1, 1, 1, 1, 1], 
[1, 1, 1, 1, 1, 1, 1, 1], 
[1, 1, 1, 1, 1, 1, 1, 1], 
[1, 1, 1, 1, 1, 1, 1, 1], 
[1, 1, 1, 1, 1, 1, 1, 1], 
[1, 1, 1, 1, 1, 1, 1, 1], 
[1, 1, 1, 1, 1, 1, 1, 1], 
[1, 1, 1, 1, 1, 1, 1, 1]], 
[[1, 1, 1, 1, 1, 1, 1, 1], 
[1, 1, 1, 1, 1, 1, 1, 1], 
[1, 1, 1, 1, 1, 1, 1, 1], 
[1, 1, 1, 1, 1, 1, 1, 1], 
[1, 1, 1, 1, 1, 1, 1, 1], 
[1, 1, 1, 1, 1, 1, 1, 1], 
[1, 1, 1, 1, 1, 1, 1, 1], 
[1, 1, 1, 1, 1, 1, 1, 1]], 
[[1, 1, 1, 1, 1, 1, 1, 1], 
[1, 1, 1, 1, 1, 1, 1, 1], 
[1, 1, 1, 1, 1, 1, 1, 1], 
[1, 1, 1, 1, 1, 1, 1, 1], 
[1, 1, 1, 1, 1, 1, 1, 1], 
[1, 1, 1, 1, 1, 1, 1, 1], 
[1, 1, 1, 1, 1, 1, 1, 1], 
[1, 1, 1, 1, 1, 1, 1, 1]], 
[[1, 1, 1, 1, 1, 1, 1, 1], 
[1, 1, 1, 1, 1, 1, 1, 1], 
[1, 1, 1, 1, 1, 1, 1, 1], 
[1, 1, 1, 1, 1, 1, 1, 1], 
[1, 1, 1, 1, 1, 1, 1, 1], 
[1, 1, 1, 1, 1, 1, 1, 1], 
[1, 1, 1, 1, 1, 1, 1, 1], 
[1, 1, 1, 1, 1, 1, 1, 1]], 
[[1, 1, 1, 1, 1, 1, 1, 1], 
[1, 1, 1, 1, 1, 1, 1, 1], 
[1, 1, 1, 1, 1, 1, 1, 1], 
[1, 1, 1, 1, 1, 1, 1, 1], 
[1, 1, 1, 1, 1, 1, 1, 1], 
[1, 1, 1, 1, 1, 1, 1, 1], 
[1, 1, 1, 1, 1, 1, 1, 1], 
[1, 1, 1, 1, 1, 1, 1, 1]], 
[[1, 1, 1, 1, 1, 1, 1, 1], 
[1, 1, 1, 1, 1, 1, 1, 1], 
[1, 1, 1, 1, 1, 1, 1, 1], 
[1, 1, 1, 1, 1, 1, 1, 1], 
[1, 1, 1, 1, 1, 1, 1, 1], 
[1, 1, 1, 1, 1, 1, 1, 1], 
[1, 1, 1, 1, 1, 1, 1, 1], 
[1, 1, 1, 1, 1, 1, 1, 1]], 
[[1, 1, 1, 1, 1, 1, 1, 1], 
[1, 1, 1, 1, 1, 1, 1, 1], 
[1, 1, 1, 1, 1, 1, 1, 1], 
[1, 1, 1, 1, 1, 1, 1, 1], 
[1, 1, 1, 1, 1, 1, 1, 1], 
[1, 1, 1, 1, 1, 1, 1, 1], 
[1, 1, 1, 1, 1, 1, 1, 1], 
[1, 1, 1, 1, 1, 1, 1, 1]], 
[[1, 1, 1, 1, 1, 1, 1, 1], 
[1, 1, 1, 1, 1, 1, 1, 1], 
[1, 1, 1, 1, 1, 1, 1, 1], 
[1, 1, 1, 1, 1, 1, 1, 1], 
[1, 1, 1, 1, 1, 1, 1, 1], 
[1, 1, 1, 1, 1, 1, 1, 1], 
[1, 1, 1, 1, 1, 1, 1, 1], 
[1, 1, 1, 1, 1, 1, 1, 1]], 
[[1, 1, 1, 1, 1, 1, 1, 1], 
[1, 1, 1, 1, 1, 1, 1, 1], 
[1, 1, 1, 1, 1, 1, 1, 1], 
[1, 1, 1, 1, 1, 1, 1, 1], 
[1, 1, 1, 1, 1, 1, 1, 1], 
[1, 1, 1, 1, 1, 1, 1, 1], 
[1, 1, 1, 1, 1, 1, 1, 1], 
[1, 1, 1, 1, 1, 1, 1, 1]], 
[[1, 1, 1, 1, 1, 1, 1, 1], 
[1, 1, 1, 1, 1, 1, 1, 1], 
[1, 1, 1, 1, 1, 1, 1, 1], 
[1, 1, 1, 1, 1, 1, 1, 1], 
[1, 1, 1, 1, 1, 1, 1, 1], 
[1, 1, 1, 1, 1, 1, 1, 1], 
[1, 1, 1, 1, 1, 1, 1, 1], 
[1, 1, 1, 1, 1, 1, 1, 1]], 
[[1, 1, 1, 1, 1, 1, 1, 1], 
[1, 1, 1, 1, 1, 1, 1, 1], 
[1, 1, 1, 1, 1, 1, 1, 1], 
[1, 1, 1, 1, 1, 1, 1, 1], 
[1, 1, 1, 1, 1, 1, 1, 1], 
[1, 1, 1, 1, 1, 1, 1, 1], 
[1, 1, 1, 1, 1, 1, 1, 1], 
[1, 1, 1, 1, 1, 1, 1, 1]], 
[[1, 1, 1, 1, 1, 1, 1, 1], 
[1, 1, 1, 1, 1, 1, 1, 1], 
[1, 1, 1, 1, 1, 1, 1, 1], 
[1, 1, 1, 1, 1, 1, 1, 1], 
[1, 1, 1, 1, 1, 1, 1, 1], 
[1, 1, 1, 1, 1, 1, 1, 1], 
[1, 1, 1, 1, 1, 1, 1, 1], 
[1, 1, 1, 1, 1, 1, 1, 1]], 
[[1, 1, 1, 1, 1, 1, 1, 1], 
[1, 1, 1, 1, 1, 1, 1, 1], 
[1, 1, 1, 1, 1, 1, 1, 1], 
[1, 1, 1, 1, 1, 1, 1, 1], 
[1, 1, 1, 1, 1, 1, 1, 1], 
[1, 1, 1, 1, 1, 1, 1, 1], 
[1, 1, 1, 1, 1, 1, 1, 1], 
[1, 1, 1, 1, 1, 1, 1, 1]], 
[[1, 1, 1, 1, 1, 1, 1, 1], 
[1, 1, 1, 1, 1, 1, 1, 1], 
[1, 1, 1, 1, 1, 1, 1, 1], 
[1, 1, 1, 1, 1, 1, 1, 1], 
[1, 1, 1, 1, 1, 1, 1, 1], 
[1, 1, 1, 1, 1, 1, 1, 1], 
[1, 1, 1, 1, 1, 1, 1, 1], 
[1, 1, 1, 1, 1, 1, 1, 1]], 
[[1, 1, 1, 1, 1, 1, 1, 1], 
[1, 1, 1, 1, 1, 1, 1, 1], 
[1, 1, 1, 1, 1, 1, 1, 1], 
[1, 1, 1, 1, 1, 1, 1, 1], 
[1, 1, 1, 1, 1, 1, 1, 1], 
[1, 1, 1, 1, 1, 1, 1, 1], 
[1, 1, 1, 1, 1, 1, 1, 1], 
[1, 1, 1, 1, 1, 1, 1, 1]], 
[[1, 1, 1, 1, 1, 1, 1, 1], 
[1, 1, 1, 1, 1, 1, 1, 1], 
[1, 1, 1, 1, 1, 1, 1, 1], 
[1, 1, 1, 1, 1, 1, 1, 1], 
[1, 1, 1, 1, 1, 1, 1, 1], 
[1, 1, 1, 1, 1, 1, 1, 1], 
[1, 1, 1, 1, 1, 1, 1, 1], 
[1, 1, 1, 1, 1, 1, 1, 1]], 
[[1, 1, 1, 1, 1, 1, 1, 1], 
[1, 1, 1, 1, 1, 1, 1, 1], 
[1, 1, 1, 1, 1, 1, 1, 1], 
[1, 1, 1, 1, 1, 1, 1, 1], 
[1, 1, 1, 1, 1, 1, 1, 1], 
[1, 1, 1, 1, 1, 1, 1, 1], 
[1, 1, 1, 1, 1, 1, 1, 1], 
[1, 1, 1, 1, 1, 1, 1, 1]], 
[[1, 1, 1, 1, 1, 1, 1, 1], 
[1, 1, 1, 1, 1, 1, 1, 1], 
[1, 1, 1, 1, 1, 1, 1, 1], 
[1, 1, 1, 1, 1, 1, 1, 1], 
[1, 1, 1, 1, 1, 1, 1, 1], 
[1, 1, 1, 1, 1, 1, 1, 1], 
[1, 1, 1, 1, 1, 1, 1, 1], 
[1, 1, 1, 1, 1, 1, 1, 1]], 
[[1, 1, 1, 1, 1, 1, 1, 1], 
[1, 1, 1, 1, 1, 1, 1, 1], 
[1, 1, 1, 1, 1, 1, 1, 1], 
[1, 1, 1, 1, 1, 1, 1, 1], 
[1, 1, 1, 1, 1, 1, 1, 1], 
[1, 1, 1, 1, 1, 1, 1, 1], 
[1, 1, 1, 1, 1, 1, 1, 1], 
[1, 1, 1, 1, 1, 1, 1, 1]], 
[[1, 1, 1, 1, 1, 1, 1, 1], 
[1, 1, 1, 1, 1, 1, 1, 1], 
[1, 1, 1, 1, 1, 1, 1, 1], 
[1, 1, 1, 1, 1, 1, 1, 1], 
[1, 1, 1, 1, 1, 1, 1, 1], 
[1, 1, 1, 1, 1, 1, 1, 1], 
[1, 1, 1, 1, 1, 1, 1, 1], 
[1, 1, 1, 1, 1, 1, 1, 1]], 
[[1, 1, 1, 1, 1, 1, 1, 1], 
[1, 1, 1, 1, 1, 1, 1, 1], 
[1, 1, 1, 1, 1, 1, 1, 1], 
[1, 1, 1, 1, 1, 1, 1, 1], 
[1, 1, 1, 1, 1, 1, 1, 1], 
[1, 1, 1, 1, 1, 1, 1, 1], 
[1, 1, 1, 1, 1, 1, 1, 1], 
[1, 1, 1, 1, 1, 1, 1, 1]], 
[[1, 1, 1, 1, 1, 1, 1, 1], 
[1, 1, 1, 1, 1, 1, 1, 1], 
[1, 1, 1, 1, 1, 1, 1, 1], 
[1, 1, 1, 1, 1, 1, 1, 1], 
[1, 1, 1, 1, 1, 1, 1, 1], 
[1, 1, 1, 1, 1, 1, 1, 1], 
[1, 1, 1, 1, 1, 1, 1, 1], 
[1, 1, 1, 1, 1, 1, 1, 1]], 
[[1, 1, 1, 1, 1, 1, 1, 1], 
[1, 1, 1, 1, 1, 1, 1, 1], 
[1, 1, 1, 1, 1, 1, 1, 1], 
[1, 1, 1, 1, 1, 1, 1, 1], 
[1, 1, 1, 1, 1, 1, 1, 1], 
[1, 1, 1, 1, 1, 1, 1, 1], 
[1, 1, 1, 1, 1, 1, 1, 1], 
[1, 1, 1, 1, 1, 1, 1, 1]], 
[[1, 1, 1, 1, 1, 1, 1, 1], 
[1, 1, 1, 1, 1, 1, 1, 1], 
[1, 1, 1, 1, 1, 1, 1, 1], 
[1, 1, 1, 1, 1, 1, 1, 1], 
[1, 1, 1, 1, 1, 1, 1, 1], 
[1, 1, 1, 1, 1, 1, 1, 1], 
[1, 1, 1, 1, 1, 1, 1, 1], 
[1, 1, 1, 1, 1, 1, 1, 1]], 
[[1, 1, 1, 1, 1, 1, 1, 1], 
[1, 1, 1, 1, 1, 1, 1, 1], 
[1, 1, 1, 1, 1, 1, 1, 1], 
[1, 1, 1, 1, 1, 1, 1, 1], 
[1, 1, 1, 1, 1, 1, 1, 1], 
[1, 1, 1, 1, 1, 1, 1, 1], 
[1, 1, 1, 1, 1, 1, 1, 1], 
[1, 1, 1, 1, 1, 1, 1, 1]], 
[[1, 1, 1, 1, 1, 1, 1, 1], 
[1, 1, 1, 1, 1, 1, 1, 1], 
[1, 1, 1, 1, 1, 1, 1, 1], 
[1, 1, 1, 1, 1, 1, 1, 1], 
[1, 1, 1, 1, 1, 1, 1, 1], 
[1, 1, 1, 1, 1, 1, 1, 1], 
[1, 1, 1, 1, 1, 1, 1, 1], 
[1, 1, 1, 1, 1, 1, 1, 1]], 
[[1, 1, 1, 1, 1, 1, 1, 1], 
[1, 1, 1, 1, 1, 1, 1, 1], 
[1, 1, 1, 1, 1, 1, 1, 1], 
[1, 1, 1, 1, 1, 1, 1, 1], 
[1, 1, 1, 1, 1, 1, 1, 1], 
[1, 1, 1, 1, 1, 1, 1, 1], 
[1, 1, 1, 1, 1, 1, 1, 1], 
[1, 1, 1, 1, 1, 1, 1, 1]], 
[[1, 1, 1, 1, 1, 1, 1, 1], 
[1, 1, 1, 1, 1, 1, 1, 1], 
[1, 1, 1, 1, 1, 1, 1, 1], 
[1, 1, 1, 1, 1, 1, 1, 1], 
[1, 1, 1, 1, 1, 1, 1, 1], 
[1, 1, 1, 1, 1, 1, 1, 1], 
[1, 1, 1, 1, 1, 1, 1, 1], 
[1, 1, 1, 1, 1, 1, 1, 1]], 
[[1, 1, 1, 1, 1, 1, 1, 1], 
[1, 1, 1, 1, 1, 1, 1, 1], 
[1, 1, 1, 1, 1, 1, 1, 1], 
[1, 1, 1, 1, 1, 1, 1, 1], 
[1, 1, 1, 1, 1, 1, 1, 1], 
[1, 1, 1, 1, 1, 1, 1, 1], 
[1, 1, 1, 1, 1, 1, 1, 1], 
[1, 1, 1, 1, 1, 1, 1, 1]], 
[[1, 1, 1, 1, 1, 1, 1, 1], 
[1, 1, 1, 1, 1, 1, 1, 1], 
[1, 1, 1, 1, 1, 1, 1, 1], 
[1, 1, 1, 1, 1, 1, 1, 1], 
[1, 1, 1, 1, 1, 1, 1, 1], 
[1, 1, 1, 1, 1, 1, 1, 1], 
[1, 1, 1, 1, 1, 1, 1, 1], 
[1, 1, 1, 1, 1, 1, 1, 1]], 
[[1, 1, 1, 1, 1, 1, 1, 1], 
[1, 1, 1, 1, 1, 1, 1, 1], 
[1, 1, 1, 1, 1, 1, 1, 1], 
[1, 1, 1, 1, 1, 1, 1, 1], 
[1, 1, 1, 1, 1, 1, 1, 1], 
[1, 1, 1, 1, 1, 1, 1, 1], 
[1, 1, 1, 1, 1, 1, 1, 1], 
[1, 1, 1, 1, 1, 1, 1, 1]];int(0..61)]
letting turningPoints be [[5, 2], 
[1, 2], 
[1, 1], 
[8, 1], 
[8, 8], 
[1, 8], 
[1, 7], 
[7, 7], 
[7, 2], 
[6, 2], 
[6, 6], 
[2, 6], 
[2, 5], 
[1, 5], 
[1, 3], 
[5, 3], 
[5, 4], 
[3, 4], 
[3, 5], 
[4, 5], 
[0, 0], 
[0, 0], 
[0, 0], 
[0, 0], 
[0, 0], 
[0, 0], 
[0, 0], 
[0, 0], 
[0, 0], 
[0, 0], 
[0, 0], 
[0, 0], 
[0, 0], 
[0, 0], 
[0, 0], 
[0, 0], 
[0, 0], 
[0, 0], 
[0, 0], 
[0, 0], 
[0, 0], 
[0, 0], 
[0, 0], 
[0, 0], 
[0, 0], 
[0, 0], 
[0, 0], 
[0, 0], 
[0, 0], 
[0, 0], 
[0, 0], 
[0, 0], 
[0, 0], 
[0, 0], 
[0, 0], 
[0, 0], 
[0, 0], 
[0, 0], 
[0, 0], 
[0, 0], 
[0, 0], 
[0, 0];int(0..61)]
